          17
          20
           1           4           1
           2           4           5
           3           9           4
           4           3           5
           5           3           9
           6           1           4
           7           5           3
           8           4           1
           9           5           5
          10           7           2
          11           9           3
          12           3          13
          13           2           8
          14          15           4
          15           5           4
          16          10           6
          17           7           2
